p tw 150 398
0 1
0 2
0 3
0 4
0 86
1 2
1 3
1 4
1 12
2 3
2 4
2 29
2 54
2 59
2 102
2 110
2 111
3 4
3 55
4 53
4 58
4 87
4 99
4 115
4 132
5 6
5 7
5 8
5 63
6 7
6 8
6 64
6 80
6 122
6 128
7 8
7 46
7 47
7 48
8 52
8 65
8 95
9 10
9 148
10 149
11 12
11 15
13 14
13 125
14 81
15 140
16 17
16 18
16 37
16 49
17 18
17 36
17 50
17 68
17 102
18 38
19 20
19 21
19 30
19 49
19 50
19 51
20 21
20 66
20 67
21 34
21 35
22 23
22 40
22 83
22 84
23 39
23 93
23 94
24 25
24 26
24 27
24 128
24 129
24 130
24 131
25 26
25 27
25 120
25 121
25 122
26 27
26 112
27 81
27 124
27 126
27 137
28 29
28 30
28 68
28 69
29 30
29 54
29 59
29 102
29 110
29 111
30 49
30 50
30 51
31 32
31 33
31 132
31 136
32 33
32 73
32 99
32 100
32 101
33 78
33 87
33 88
33 89
34 35
34 67
35 51
35 66
35 69
35 111
36 37
36 38
36 50
36 68
36 102
37 38
37 49
39 40
39 41
39 42
39 43
39 93
39 94
40 41
40 42
40 43
40 83
40 84
41 42
41 43
41 44
41 96
41 97
41 98
42 43
42 56
43 45
43 138
44 45
44 96
44 97
44 98
45 138
46 47
46 48
46 60
46 95
46 113
46 134
47 48
47 52
48 62
48 63
48 64
48 65
49 50
49 51
50 51
50 68
50 102
51 66
51 69
51 111
52 65
52 95
53 54
53 55
53 58
53 87
53 99
53 115
53 132
54 55
54 59
54 102
54 110
54 111
56 83
56 93
56 97
57 58
57 59
57 114
58 59
58 87
58 99
58 115
58 132
59 102
59 110
59 111
60 61
60 95
60 113
60 134
61 82
62 63
62 64
62 65
62 79
62 130
63 64
63 65
64 65
64 80
64 122
64 128
65 95
66 67
66 69
66 111
68 69
68 102
69 111
70 71
70 88
70 92
71 77
71 78
72 73
72 74
72 108
72 109
73 74
73 99
73 100
73 101
74 133
75 76
75 90
76 107
77 78
77 91
77 92
78 87
78 88
78 89
79 80
79 130
80 122
80 128
81 124
81 126
81 137
82 113
83 84
83 93
83 97
84 90
84 94
84 107
84 139
85 86
85 145
87 88
87 89
87 99
87 115
87 132
88 89
88 92
89 91
89 100
89 109
89 136
90 94
90 107
90 139
91 92
91 100
91 109
91 136
93 94
93 97
94 107
94 139
95 113
95 134
96 97
96 98
96 106
96 141
96 142
97 98
98 105
98 138
98 143
98 144
99 100
99 101
99 115
99 132
100 101
100 109
100 136
101 108
101 133
102 110
102 111
103 104
103 105
103 106
103 146
104 105
104 106
104 140
104 147
104 148
104 149
105 106
105 138
105 143
105 144
106 141
106 142
107 139
108 109
108 133
109 136
110 111
110 114
110 115
110 116
110 117
112 120
112 129
112 137
113 134
114 115
114 116
114 117
115 116
115 117
115 132
116 117
116 118
117 125
118 119
119 135
120 121
120 122
120 129
120 137
121 122
121 131
122 128
123 124
123 127
124 126
124 137
126 127
126 137
128 129
128 130
128 131
129 130
129 131
129 137
130 131
132 136
134 135
138 143
138 144
139 145
140 147
140 148
140 149
141 142
141 143
141 146
141 147
142 144
143 144
143 146
143 147
146 147
147 148
147 149
148 149
